* ENCODING=ISO-8859-1
NAME          CPLEX
ROWS
 N  obj1    
 G  c1      
 G  c2      
 G  c3      
 G  c4      
 G  c5      
 G  c6      
 G  c7      
 G  c8      
 G  c9      
 G  c10     
 G  c11     
 G  c12     
 G  c13     
 G  c14     
 G  c15     
 G  c16     
 G  c17     
 G  c18     
 G  c19     
 G  c20     
 G  c21     
 G  c22     
 G  c23     
 G  c24     
 G  c25     
 G  c26     
 G  c27     
 G  c28     
 G  c29     
 G  c30     
 G  c31     
 G  c32     
 G  c33     
 G  c34     
 G  c35     
 G  c36     
 G  c37     
 G  c38     
 G  c39     
 G  c40     
COLUMNS
    MARK0000  'MARKER'                 'INTORG'
    x1        obj1                            1
    x1        c12                           587
    x1        c20                           921
    x1        c22                           667
    x1        c25                           752
    x1        c31                           499
    x2        obj1                            1
    x2        c8                            187
    x2        c9                            837
    x2        c14                           305
    x2        c21                           875
    x2        c31                           765
    x3        obj1                            1
    x3        c5                            236
    x3        c7                            622
    x3        c11                           410
    x3        c14                           139
    x3        c16                           175
    x3        c25                           518
    x3        c29                           138
    x3        c32                           520
    x3        c33                           302
    x4        obj1                            1
    x4        c5                            505
    x4        c10                           502
    x4        c17                           692
    x4        c22                           866
    x4        c31                           672
    x5        obj1                            1
    x5        c2                            387
    x5        c15                           817
    x5        c35                           807
    x5        c37                           894
    x6        obj1                            1
    x6        c4                            759
    x6        c7                            626
    x6        c11                           140
    x6        c13                           290
    x7        obj1                            1
    x7        c8                            557
    x7        c32                           899
    x7        c34                           869
    x8        obj1                            1
    x8        c17                           116
    x9        obj1                            1
    x9        c2                            833
    x9        c7                            834
    x9        c9                            664
    x9        c36                           324
    x10       obj1                            1
    x10       c6                            862
    x10       c22                           617
    x10       c29                           310
    x11       obj1                            1
    x11       c8                            336
    x11       c13                           750
    x11       c14                           970
    x11       c17                           609
    x11       c25                           844
    x12       obj1                            1
    x12       c1                            794
    x12       c28                           385
    x12       c38                           597
    x13       obj1                            1
    x13       c24                           969
    x14       obj1                            1
    x14       c1                            536
    x14       c7                            882
    x14       c11                           139
    x14       c29                           750
    x15       obj1                            1
    x15       c13                           107
    x15       c14                           785
    x15       c27                           746
    x15       c31                           964
    x15       c36                           277
    x16       obj1                            1
    x16       c6                            107
    x16       c38                           435
    x17       obj1                            1
    x17       c1                            469
    x17       c10                           643
    x17       c22                           209
    x17       c32                           393
    x18       obj1                            1
    x18       c1                            225
    x18       c5                            751
    x18       c10                           136
    x19       obj1                            1
    x19       c15                           183
    x19       c18                           750
    x19       c19                           231
    x19       c28                           366
    x19       c40                           586
    x20       obj1                            1
    x20       c10                           480
    x20       c16                           363
    x20       c19                           761
    x20       c26                           955
    x20       c39                           303
    x21       obj1                            1
    x21       c7                            151
    x21       c14                           547
    x21       c26                           194
    x21       c27                           189
    x21       c29                          1000
    x21       c39                           817
    x22       obj1                            1
    x22       c4                            200
    x22       c10                           709
    x22       c13                           150
    x22       c19                           779
    x22       c33                           374
    x23       obj1                            1
    x23       c10                           711
    x23       c11                           907
    x23       c18                           418
    x24       obj1                            1
    x24       c22                           756
    x24       c24                           622
    x24       c28                           887
    x25       obj1                            1
    x25       c3                            586
    x25       c5                            518
    x25       c20                           709
    x25       c25                           392
    x25       c26                           278
    x25       c33                           770
    x25       c34                           507
    x26       obj1                            1
    x26       c4                            758
    x26       c39                           924
    x27       obj1                            1
    x27       c8                            910
    x27       c27                           710
    x27       c28                           222
    x27       c35                           433
    x27       c37                           973
    x28       obj1                            1
    x28       c7                            610
    x28       c13                           725
    x28       c28                           645
    x28       c33                           329
    x29       obj1                            1
    x29       c6                            416
    x29       c15                           549
    x29       c21                           878
    x29       c27                           133
    x29       c37                           765
    x30       obj1                            1
    x30       c15                           326
    x30       c25                           323
    x30       c26                           484
    x30       c37                           881
    x30       c39                           161
    x31       obj1                            1
    x32       obj1                            1
    x32       c9                            173
    x32       c15                           621
    x32       c37                           183
    x33       obj1                            1
    x33       c13                           677
    x33       c29                           535
    x33       c33                           555
    x33       c38                           552
    x34       obj1                            1
    x34       c9                            868
    x34       c17                           393
    x34       c26                           266
    x35       obj1                            1
    x35       c12                           220
    x35       c16                           215
    x35       c31                           188
    x36       obj1                            1
    x36       c12                           621
    x36       c29                           434
    x37       obj1                            1
    x37       c11                           604
    x37       c23                           361
    x37       c28                           152
    x37       c39                           792
    x37       c40                           899
    x38       obj1                            1
    x38       c19                           298
    x38       c33                           206
    x38       c40                           524
    x39       obj1                            1
    x39       c8                            259
    x39       c15                           643
    x39       c17                           709
    x40       obj1                            1
    x40       c11                           685
    x40       c13                           374
    x40       c28                           729
    x40       c31                           643
    x40       c36                           899
    x40       c38                           816
    x41       obj1                            1
    x41       c24                           749
    x41       c36                           575
    x41       c38                           266
    x42       obj1                            1
    x42       c5                            749
    x42       c6                            246
    x42       c8                            103
    x42       c10                           140
    x42       c23                           471
    x42       c26                           618
    x43       obj1                            1
    x43       c8                            957
    x43       c19                           291
    x43       c29                           168
    x44       obj1                            1
    x44       c7                            367
    x44       c27                           179
    x44       c36                           311
    x45       obj1                            1
    x45       c7                            199
    x45       c11                           682
    x45       c22                           525
    x45       c30                           318
    x46       obj1                            1
    x46       c8                            417
    x46       c10                           111
    x46       c14                           452
    x46       c16                           580
    x46       c18                           498
    x46       c19                           156
    x46       c30                           731
    x46       c32                           125
    x46       c33                           661
    x46       c34                           381
    x47       obj1                            1
    x47       c5                            171
    x47       c22                           391
    x47       c26                           462
    x47       c32                           807
    x48       obj1                            1
    x48       c14                           479
    x48       c20                           169
    x48       c33                           673
    x48       c35                           232
    x49       obj1                            1
    x49       c4                            168
    x49       c22                           588
    x49       c31                           922
    x49       c32                           535
    x50       obj1                            1
    x50       c2                            133
    x50       c20                           247
    x50       c35                           239
    x50       c40                           554
    x51       obj1                            1
    x51       c28                           854
    x51       c30                           548
    x51       c33                           356
    x51       c38                           506
    x52       obj1                            1
    x52       c6                            876
    x52       c20                           222
    x52       c25                           666
    x53       obj1                            1
    x53       c10                           314
    x53       c13                           604
    x53       c26                           224
    x53       c32                           555
    x53       c37                           993
    x54       obj1                            1
    x54       c3                            559
    x54       c6                            369
    x54       c24                           577
    x54       c30                           435
    x55       obj1                            1
    x55       c11                           985
    x55       c21                           851
    x55       c23                           701
    x56       obj1                            1
    x56       c5                            790
    x56       c6                            198
    x56       c13                           420
    x56       c14                           898
    x56       c15                           614
    x56       c17                           672
    x56       c33                           803
    x56       c36                           692
    x57       obj1                            1
    x57       c14                           538
    x57       c21                           485
    x57       c26                           458
    x57       c29                           492
    x57       c35                           656
    x58       obj1                            1
    x58       c1                            868
    x58       c2                            981
    x58       c9                            363
    x58       c12                           140
    x58       c17                           683
    x58       c19                           587
    x58       c28                           295
    x58       c29                           503
    x58       c35                           413
    x59       obj1                            1
    x59       c2                            533
    x59       c9                            570
    x59       c20                           273
    x59       c31                           527
    x59       c33                           797
    x59       c38                           908
    x60       obj1                            1
    x60       c8                            315
    x60       c27                           870
    x60       c39                           202
    x61       obj1                            1
    x61       c1                            566
    x61       c17                           266
    x61       c39                           924
    x62       obj1                            1
    x62       c3                            459
    x62       c6                            119
    x62       c22                           386
    x62       c25                           294
    x62       c32                           885
    x62       c36                           742
    x63       obj1                            1
    x63       c2                            102
    x63       c4                            798
    x63       c36                           405
    x63       c39                           572
    x64       obj1                            1
    x64       c25                           267
    x64       c37                           878
    x65       obj1                            1
    x65       c1                            559
    x65       c5                            543
    x65       c6                            375
    x65       c10                           968
    x65       c13                           914
    x65       c19                           239
    x65       c39                           354
    x66       obj1                            1
    x66       c3                           1000
    x66       c9                            218
    x66       c16                           723
    x66       c17                           755
    x66       c30                           504
    x67       obj1                            1
    x67       c8                            250
    x67       c31                           703
    x67       c40                           758
    x68       obj1                            1
    x68       c28                           377
    x68       c29                           631
    x68       c33                           949
    x68       c37                           585
    x68       c38                           554
    x69       obj1                            1
    x69       c4                            115
    x69       c5                            983
    x69       c24                           327
    x69       c25                           107
    x69       c27                           982
    x69       c31                           117
    x70       obj1                            1
    x70       c1                            908
    x70       c14                           381
    x70       c17                           327
    x70       c38                           362
    x70       c39                           594
    x71       obj1                            1
    x71       c5                            631
    x71       c11                           690
    x71       c27                           894
    x71       c29                           938
    x71       c37                           913
    x72       obj1                            1
    x72       c6                            489
    x72       c9                            874
    x72       c15                           720
    x72       c36                           262
    x72       c37                           860
    x73       obj1                            1
    x73       c26                           508
    x74       obj1                            1
    x74       c21                           679
    x74       c36                           738
    x75       obj1                            1
    x75       c13                           455
    x75       c35                           335
    x75       c36                           795
    x76       obj1                            1
    x76       c21                           476
    x76       c30                           490
    x76       c38                           602
    x76       c39                           244
    x76       c40                           587
    x77       obj1                            1
    x77       c6                            481
    x77       c23                           328
    x77       c36                           287
    x78       obj1                            1
    x78       c3                            666
    x78       c5                            636
    x78       c16                           425
    x78       c18                           510
    x78       c26                           874
    x79       obj1                            1
    x79       c2                            508
    x79       c3                            505
    x79       c13                           217
    x79       c20                           619
    x79       c25                           680
    x79       c28                           617
    x79       c37                           907
    x79       c40                           504
    x80       obj1                            1
    x80       c15                           978
    x80       c18                           277
    x80       c20                           839
    x80       c25                           476
    x80       c28                           576
    x80       c31                           530
    x80       c34                           188
    MARK0001  'MARKER'                 'INTEND'
RHS
    rhs       c1                           2463
    rhs       c2                           1739
    rhs       c3                           1888
    rhs       c4                           1399
    rhs       c5                           3257
    rhs       c6                           2269
    rhs       c7                           2146
    rhs       c8                           2146
    rhs       c9                           2284
    rhs       c10                          2357
    rhs       c11                          2621
    rhs       c12                           784
    rhs       c13                          2842
    rhs       c14                          2747
    rhs       c15                          2726
    rhs       c16                          1241
    rhs       c17                          2611
    rhs       c18                          1227
    rhs       c19                          1671
    rhs       c20                          2000
    rhs       c21                          2122
    rhs       c22                          2503
    rhs       c23                           931
    rhs       c24                          1622
    rhs       c25                          2660
    rhs       c26                          2661
    rhs       c27                          2352
    rhs       c28                          3053
    rhs       c29                          2950
    rhs       c30                          1513
    rhs       c31                          3265
    rhs       c32                          2360
    rhs       c33                          3388
    rhs       c34                           973
    rhs       c35                          1558
    rhs       c36                          3154
    rhs       c37                          4416
    rhs       c38                          2799
    rhs       c39                          2944
    rhs       c40                          2206
BOUNDS
 LI bnd       x1        0
 LI bnd       x2        0
 LI bnd       x3        0
 LI bnd       x4        0
 LI bnd       x5        0
 LI bnd       x6        0
 LI bnd       x7        0
 LI bnd       x8        0
 LI bnd       x9        0
 LI bnd       x10       0
 LI bnd       x11       0
 LI bnd       x12       0
 LI bnd       x13       0
 LI bnd       x14       0
 LI bnd       x15       0
 LI bnd       x16       0
 LI bnd       x17       0
 LI bnd       x18       0
 LI bnd       x19       0
 LI bnd       x20       0
 LI bnd       x21       0
 LI bnd       x22       0
 LI bnd       x23       0
 LI bnd       x24       0
 LI bnd       x25       0
 LI bnd       x26       0
 LI bnd       x27       0
 LI bnd       x28       0
 LI bnd       x29       0
 LI bnd       x30       0
 LI bnd       x31       0
 LI bnd       x32       0
 LI bnd       x33       0
 LI bnd       x34       0
 LI bnd       x35       0
 LI bnd       x36       0
 LI bnd       x37       0
 LI bnd       x38       0
 LI bnd       x39       0
 LI bnd       x40       0
 LI bnd       x41       0
 LI bnd       x42       0
 LI bnd       x43       0
 LI bnd       x44       0
 LI bnd       x45       0
 LI bnd       x46       0
 LI bnd       x47       0
 LI bnd       x48       0
 LI bnd       x49       0
 LI bnd       x50       0
 LI bnd       x51       0
 LI bnd       x52       0
 LI bnd       x53       0
 LI bnd       x54       0
 LI bnd       x55       0
 LI bnd       x56       0
 LI bnd       x57       0
 LI bnd       x58       0
 LI bnd       x59       0
 LI bnd       x60       0
 LI bnd       x61       0
 LI bnd       x62       0
 LI bnd       x63       0
 LI bnd       x64       0
 LI bnd       x65       0
 LI bnd       x66       0
 LI bnd       x67       0
 LI bnd       x68       0
 LI bnd       x69       0
 LI bnd       x70       0
 LI bnd       x71       0
 LI bnd       x72       0
 LI bnd       x73       0
 LI bnd       x74       0
 LI bnd       x75       0
 LI bnd       x76       0
 LI bnd       x77       0
 LI bnd       x78       0
 LI bnd       x79       0
 LI bnd       x80       0
ENDATA
